(set-info :origin "SVCOMP13 benchmarks generated by Arie Gurfinkel")
(set-info :status unsat)
(set-logic HORN)
(declare-fun cp-rel-entry () Bool)
(declare-fun cp-rel-__UFO__0
             (Real
              Real
              Real
              Real
              Real
              Real
              Real
              Real
              Real
              Real
              Real
              Real
              Real
              Real
              Real
              Real
              Real
              Real
              Real
              Real
              Bool
              Real
              Bool
              Real
              Real
              Real)
             Bool)
(declare-fun cp-rel-UnifiedReturnBlock () Bool)
(declare-fun cp-rel-bb.i
             (Real
              Real
              Real
              Real
              Real
              Real
              Real
              Real
              Real
              Real
              Real
              Real
              Real
              Real
              Real
              Real
              Real
              Real
              Real)
             Bool)
(assert |cp-rel-entry|)
(assert (forall ((?A Real) (?B Real) (?C Real) (?D Real) (?E Real) (?F Real) (?G Real) (?H Real) (?I Real) (?J Real) (?K Real) (?L Real) (?M Real) (?N Real) (?O Real) (?P Real) (?Q Real) (?R Real) (?S Real) (?T Bool) )(let (($x540691 (|cp-rel-bb.i| ?A ?B ?C ?D ?E ?F ?G ?H ?I ?J ?K ?L ?M ?N ?O ?P ?Q ?R ?S)))
(let (($x288992 (= ?T true)))
(let (($x537938 (<= ?B 0.0)))
(let (($x113008 (>= ?B 0.0)))
(let (($x8734 (and |cp-rel-entry| (<= ?S 0.0) (>= ?R 0.0) (<= ?R 0.0) (>= ?Q 0.0) (<= ?Q 0.0) (>= ?P 0.0) (<= ?P 0.0) (>= ?O 456.0) (<= ?O 456.0) (>= ?N 123.0) (<= ?N 123.0) (>= ?M 0.0) (<= ?M 0.0) (>= ?L 0.0) (<= ?L 0.0) (>= ?K 0.0) (<= ?K 0.0) (>= ?J 0.0) (<= ?J 0.0) (>= ?I 0.0) (<= ?I 0.0) (>= ?H 0.0) (<= ?H 0.0) (>= ?G 0.0) (<= ?G 0.0) (>= ?F 0.0) (<= ?F 0.0) (>= ?E 0.0) (<= ?E 0.0) (>= ?D 0.0) (<= ?D 0.0) (>= ?C 0.0) (<= ?C 0.0) $x113008 $x537938 (>= ?A 0.0) (<= ?A 0.0) $x288992 (>= ?S 0.0))))
(=> $x8734 $x540691)))))))
)
(assert (forall ((?A Real) (?B Real) (?C Real) (?D Real) (?E Real) (?F Real) (?G Real) (?H Real) (?I Real) (?J Real) (?K Real) (?L Real) (?M Real) (?N Real) (?O Real) (?P Real) (?Q Real) (?R Real) (?S Real) (?T Real) (?U Real) (?V Real) (?W Real) (?X Real) (?Y Real) (?Z Real) (?A1 Real) (?B1 Real) (?C1 Real) (?D1 Real) (?E1 Real) (?F1 Real) (?G1 Real) (?H1 Real) (?I1 Real) (?J1 Real) (?K1 Real) (?L1 Real) (?M1 Bool) (?N1 Bool) (?O1 Bool) (?P1 Bool) (?Q1 Bool) (?R1 Bool) (?S1 Bool) (?T1 Bool) (?U1 Bool) (?V1 Bool) (?W1 Bool) (?X1 Bool) (?Y1 Bool) (?Z1 Bool) (?A2 Bool) (?B2 Bool) (?C2 Bool) (?D2 Bool) (?E2 Bool) (?F2 Bool) (?G2 Bool) (?H2 Bool) (?I2 Bool) (?J2 Bool) (?K2 Bool) (?L2 Bool) (?M2 Bool) (?N2 Bool) (?O2 Bool) (?P2 Bool) (?Q2 Bool) (?R2 Bool) (?S2 Bool) (?T2 Bool) (?U2 Bool) (?V2 Bool) (?W2 Bool) (?X2 Bool) (?Y2 Bool) (?Z2 Bool) (?A3 Bool) (?B3 Bool) (?C3 Bool) (?D3 Bool) (?E3 Bool) (?F3 Bool) (?G3 Bool) (?H3 Bool) (?I3 Bool) (?J3 Bool) (?K3 Bool) (?L3 Bool) (?M3 Bool) (?N3 Bool) (?O3 Bool) (?P3 Bool) (?Q3 Bool) (?R3 Bool) (?S3 Bool) (?T3 Bool) (?U3 Bool) (?V3 Bool) (?W3 Bool) (?X3 Bool) (?Y3 Bool) (?Z3 Bool) (?A4 Bool) (?B4 Bool) (?C4 Bool) (?D4 Bool) (?E4 Bool) (?F4 Bool) (?G4 Bool) (?H4 Bool) (?I4 Bool) (?J4 Bool) (?K4 Bool) (?L4 Bool) (?M4 Bool) (?N4 Bool) (?O4 Real) (?P4 Real) (?Q4 Real) (?R4 Real) (?S4 Real) (?T4 Real) (?U4 Real) (?V4 Real) (?W4 Real) (?X4 Real) (?Y4 Real) (?Z4 Real) )(let (($x110732 (|cp-rel-bb.i| ?T ?U ?V ?W ?X ?Y ?Z ?A1 ?B1 ?C1 ?D1 ?E1 ?F1 ?G1 ?H1 ?I1 ?J1 ?K1 ?L1)))
(let (($x796639 (not ?Q1)))
(let (($x396489 (or $x796639 (and ?M1 ?R1 ?S1))))
(let (($x87933 (or $x796639 ?R1)))
(let (($x136957 (not ?T1)))
(let (($x244611 (or $x136957 (and ?Q1 ?U1 ?V1) (and ?M1 ?W1 (not ?S1)))))
(let (($x311786 (or $x136957 (and ?U1 (not ?W1)) (and ?W1 (not ?U1)))))
(let (($x886442 (not ?X1)))
(let (($x598967 (or $x886442 ?Y1)))
(let (($x891816 (not ?I3)))
(let (($x62696 (or $x891816 ?J3)))
(let (($x205828 (not ?P3)))
(let (($x508380 (or $x205828 ?Q3)))
(let (($x532278 (not ?W3)))
(let (($x412062 (or $x532278 ?X3)))
(let (($x899825 (>= ?L1 ?S)))
(let (($x374599 (<= ?L1 ?S)))
(let (($x558837 (>= ?J1 ?Q)))
(let (($x451311 (<= ?J1 ?Q)))
(let (($x810506 (>= ?H1 ?O)))
(let (($x100629 (<= ?H1 ?O)))
(let (($x574361 (>= ?G1 ?N)))
(let (($x686319 (<= ?G1 ?N)))
(let (($x764912 (>= ?F1 ?M)))
(let (($x12992 (<= ?F1 ?M)))
(let (($x339143 (>= ?D1 ?K)))
(let (($x551047 (<= ?D1 ?K)))
(let (($x13614 (>= ?C1 ?J)))
(let (($x268275 (<= ?C1 ?J)))
(let (($x280616 (>= ?B1 ?I)))
(let (($x773898 (<= ?B1 ?I)))
(let (($x62329 (>= ?A1 ?H)))
(let (($x536544 (<= ?A1 ?H)))
(let (($x253663 (>= ?Z ?G)))
(let (($x154314 (<= ?Z ?G)))
(let (($x425900 (>= ?Y ?F)))
(let (($x32547 (<= ?Y ?F)))
(let (($x236697 (>= ?X ?E)))
(let (($x478396 (<= ?X ?E)))
(let (($x790934 (>= ?W ?D)))
(let (($x3455 (<= ?W ?D)))
(let (($x251710 (>= ?V ?C)))
(let (($x12706 (<= ?V ?C)))
(let (($x386913 (>= ?U ?B)))
(let (($x854630 (<= ?U ?B)))
(let (($x910872 (>= ?T ?O4)))
(let (($x51901 (<= ?T ?O4)))
(let (($x123564 (and ?X1 $x51901 $x910872 $x854630 $x386913 $x12706 $x251710 $x3455 $x790934 $x478396 $x236697 $x32547 $x425900 $x154314 $x253663 $x536544 $x62329 $x773898 $x280616 $x268275 $x13614 $x551047 $x339143 (<= ?E1 1.0) (>= ?E1 1.0) $x12992 $x764912 $x686319 $x574361 $x100629 $x810506 (<= ?I1 2.0) (>= ?I1 2.0) $x451311 $x558837 (<= ?K1 456.0) (>= ?K1 456.0) $x374599 $x899825)))
(let (($x538572 (>= ?K1 ?R)))
(let (($x559228 (<= ?K1 ?R)))
(let (($x916960 (>= ?I1 ?P)))
(let (($x181254 (<= ?I1 ?P)))
(let (($x80727 (>= ?E1 ?L)))
(let (($x513683 (<= ?E1 ?L)))
(let (($x687032 (not ?E2)))
(let (($x471750 (and ?Z1 $x687032 $x51901 $x910872 $x854630 $x386913 $x12706 $x251710 $x3455 $x790934 $x478396 $x236697 $x32547 $x425900 $x154314 $x253663 $x536544 $x62329 $x773898 $x280616 $x268275 $x13614 (<= ?D1 1.0) (>= ?D1 1.0) $x513683 $x80727 (<= ?F1 1.0) (>= ?F1 1.0) $x686319 $x574361 $x100629 $x810506 $x181254 $x916960 $x451311 $x558837 $x559228 $x538572 $x374599 $x899825)))
(let (($x289940 (and ?G2 (not ?L2) $x51901 $x910872 $x854630 $x386913 $x12706 $x251710 $x3455 $x790934 $x478396 $x236697 $x32547 $x425900 $x154314 $x253663 $x536544 $x62329 $x773898 $x280616 (<= ?C1 1.0) (>= ?C1 1.0) $x551047 $x339143 $x513683 $x80727 $x12992 $x764912 $x686319 $x574361 (<= ?H1 0.0) (>= ?H1 0.0) $x181254 $x916960 $x451311 $x558837 $x559228 $x538572 $x374599 $x899825)))
(let (($x633899 (not ?S2)))
(let (($x9285 (and ?N2 $x633899 $x51901 $x910872 $x854630 $x386913 $x12706 $x251710 $x3455 $x790934 $x478396 $x236697 $x32547 $x425900 $x154314 $x253663 $x536544 $x62329 (<= ?B1 1.0) (>= ?B1 1.0) $x268275 $x13614 $x551047 $x339143 $x513683 $x80727 $x12992 $x764912 $x686319 $x574361 $x100629 $x810506 $x181254 $x916960 (<= ?J1 1.0) (>= ?J1 1.0) $x559228 $x538572 (<= ?L1 123.0) (>= ?L1 123.0))))
(let (($x343239 (and ?U2 (not ?Z2) $x51901 $x910872 $x854630 $x386913 $x12706 $x251710 $x3455 $x790934 $x478396 $x236697 $x32547 $x425900 $x154314 $x253663 (<= ?A1 1.0) (>= ?A1 1.0) $x773898 $x280616 $x268275 $x13614 $x551047 $x339143 $x513683 $x80727 $x12992 $x764912 $x686319 $x574361 $x100629 $x810506 $x181254 $x916960 $x451311 $x558837 $x559228 $x538572 $x374599 $x899825)))
(let (($x539063 (not ?G3)))
(let (($x107607 (and ?B3 $x539063 $x51901 $x910872 $x854630 $x386913 $x12706 $x251710 $x3455 $x790934 $x478396 $x236697 $x32547 $x425900 (<= ?Z 1.0) (>= ?Z 1.0) $x536544 $x62329 $x773898 $x280616 $x268275 $x13614 $x551047 $x339143 $x513683 $x80727 $x12992 $x764912 $x686319 $x574361 $x100629 $x810506 $x181254 $x916960 $x451311 $x558837 $x559228 $x538572 $x374599 $x899825)))
(let (($x47393 (and ?I3 (not ?N3) $x51901 $x910872 $x854630 $x386913 $x12706 $x251710 $x3455 $x790934 $x478396 $x236697 (<= ?Y 1.0) (>= ?Y 1.0) $x154314 $x253663 $x536544 $x62329 $x773898 $x280616 $x268275 $x13614 $x551047 $x339143 $x513683 $x80727 $x12992 $x764912 $x686319 $x574361 (<= ?H1 666.0) (>= ?H1 666.0) $x181254 $x916960 $x451311 $x558837 $x559228 $x538572 $x374599 $x899825)))
(let (($x102165 (not ?U3)))
(let (($x313626 (and ?P3 $x102165 $x51901 $x910872 $x854630 $x386913 $x12706 $x251710 $x3455 $x790934 (<= ?X 1.0) (>= ?X 1.0) $x32547 $x425900 $x154314 $x253663 $x536544 $x62329 $x773898 $x280616 $x268275 $x13614 $x551047 $x339143 $x513683 $x80727 $x12992 $x764912 $x686319 $x574361 $x100629 $x810506 $x181254 $x916960 $x451311 $x558837 $x559228 $x538572 $x374599 $x899825)))
(let (($x71301 (not ?B4)))
(let (($x901263 (and ?W3 $x71301 $x51901 $x910872 $x854630 $x386913 $x12706 $x251710 (<= ?W 1.0) (>= ?W 1.0) $x478396 $x236697 $x32547 $x425900 $x154314 $x253663 $x536544 $x62329 $x773898 $x280616 $x268275 $x13614 $x551047 $x339143 $x513683 $x80727 $x12992 $x764912 $x686319 $x574361 $x100629 $x810506 $x181254 $x916960 $x451311 $x558837 $x559228 $x538572 $x374599 $x899825)))
(let (($x57141 (not ?I4)))
(let (($x467737 (and ?D4 $x57141 $x51901 $x910872 $x854630 $x386913 (<= ?V 1.0) (>= ?V 1.0) $x3455 $x790934 $x478396 $x236697 $x32547 $x425900 $x154314 $x253663 $x536544 $x62329 $x773898 $x280616 $x268275 $x13614 $x551047 $x339143 $x513683 $x80727 $x12992 $x764912 (<= ?G1 777.0) (>= ?G1 777.0) $x100629 $x810506 $x181254 $x916960 $x451311 $x558837 $x559228 $x538572 $x374599 $x899825)))
(let (($x307262 (and ?K4 (not ?N4) $x51901 $x910872 (<= ?U 1.0) (>= ?U 1.0) $x12706 $x251710 $x3455 $x790934 $x478396 $x236697 $x32547 $x425900 $x154314 $x253663 $x536544 $x62329 $x773898 $x280616 $x268275 $x13614 $x551047 $x339143 $x513683 $x80727 $x12992 $x764912 $x686319 $x574361 $x100629 $x810506 $x181254 $x916960 $x451311 $x558837 $x559228 $x538572 $x374599 $x899825)))
(let (($x144090 (|cp-rel-bb.i| ?A ?B ?C ?D ?E ?F ?G ?H ?I ?J ?K ?L ?M ?N ?O ?P ?Q ?R ?S)))
(let (($x611277 (and $x144090 (= ?M4 (= ?B 0.0)) (= ?I4 (= ?Y4 0.0)) (= ?F4 (= ?C 0.0)) (= ?B4 (= ?X4 0.0)) (= ?Y3 (= ?D 0.0)) (= ?U3 (= ?W4 0.0)) (= ?R3 (= ?E 0.0)) (= ?N3 (= ?V4 0.0)) (= ?K3 (= ?F 0.0)) (= ?G3 (= ?U4 0.0)) (= ?D3 (= ?G 0.0)) (= ?Z2 (= ?T4 0.0)) (= ?W2 (= ?H 0.0)) (= ?S2 (= ?S4 0.0)) (= ?P2 (= ?I 0.0)) (= ?L2 (= ?R4 0.0)) (= ?I2 (= ?J 0.0)) (= ?E2 (= ?Q4 0.0)) (= ?B2 (= ?K 0.0)) (= ?V1 (= ?P4 0.0)) (= ?S1 (= ?L 0.0)) (= ?O4 (+ 1.0 ?A)) (= ?P1 (not (<= ?A 3.0))) (or $x307262 $x467737 $x901263 $x313626 $x47393 $x107607 $x343239 $x9285 $x289940 $x471750 $x123564) (or (not ?K4) ?L4) (or (not ?K4) (and ?G4 ?L4 ?M4)) (or (not ?G4) (and ?H4 (not ?J4)) (and ?J4 (not ?H4))) (or (not ?G4) (and ?D4 ?H4 ?I4) (and ?Z3 ?J4 (not ?F4))) (or (not ?D4) ?E4) (or (not ?D4) (and ?Z3 ?E4 ?F4)) (or (not ?Z3) (and ?A4 (not ?C4)) (and ?C4 (not ?A4))) (or (not ?Z3) (and ?W3 ?A4 ?B4) (and ?S3 ?C4 (not ?Y3))) $x412062 (or $x532278 (and ?S3 ?X3 ?Y3)) (or (not ?S3) (and ?T3 (not ?V3)) (and ?V3 (not ?T3))) (or (not ?S3) (and ?P3 ?T3 ?U3) (and ?L3 ?V3 (not ?R3))) $x508380 (or $x205828 (and ?L3 ?Q3 ?R3)) (or (not ?L3) (and ?M3 (not ?O3)) (and ?O3 (not ?M3))) (or (not ?L3) (and ?I3 ?M3 ?N3) (and ?E3 ?O3 (not ?K3))) $x62696 (or $x891816 (and ?E3 ?J3 ?K3)) (or (not ?E3) (and ?F3 (not ?H3)) (and ?H3 (not ?F3))) (or (not ?E3) (and ?B3 ?F3 ?G3) (and ?X2 ?H3 (not ?D3))) (or (not ?B3) ?C3) (or (not ?B3) (and ?X2 ?C3 ?D3)) (or (not ?X2) (and ?Y2 (not ?A3)) (and ?A3 (not ?Y2))) (or (not ?X2) (and ?U2 ?Y2 ?Z2) (and ?Q2 ?A3 (not ?W2))) (or (not ?U2) ?V2) (or (not ?U2) (and ?Q2 ?V2 ?W2)) (or (not ?Q2) (and ?R2 (not ?T2)) (and ?T2 (not ?R2))) (or (not ?Q2) (and ?N2 ?R2 ?S2) (and ?J2 ?T2 (not ?P2))) (or (not ?N2) ?O2) (or (not ?N2) (and ?J2 ?O2 ?P2)) (or (not ?J2) (and ?K2 (not ?M2)) (and ?M2 (not ?K2))) (or (not ?J2) (and ?G2 ?K2 ?L2) (and ?C2 ?M2 (not ?I2))) (or (not ?G2) ?H2) (or (not ?G2) (and ?C2 ?H2 ?I2)) (or (not ?C2) (and ?D2 (not ?F2)) (and ?F2 (not ?D2))) (or (not ?C2) (and ?Z1 ?D2 ?E2) (and ?T1 ?F2 (not ?B2))) (or (not ?Z1) ?A2) (or (not ?Z1) (and ?T1 ?A2 ?B2)) $x598967 (or $x886442 (and ?Q1 ?Y1 (not ?V1))) $x311786 $x244611 $x87933 $x396489 (or (not ?M1) ?O1) (or (not ?M1) (and ?N1 ?O1 (not ?P1))) (= ?N4 (= ?Z4 0.0)))))
(=> $x611277 $x110732))))))))))))))))))))))))))))))))))))))))))))))))))))))))))))))))))))))))))
)
(assert (forall ((?A Real) (?B Real) (?C Real) (?D Real) (?E Real) (?F Real) (?G Real) (?H Real) (?I Real) (?J Real) (?K Real) (?L Real) (?M Real) (?N Real) (?O Real) (?P Real) (?Q Real) (?R Real) (?S Real) (?T Bool) (?U Bool) (?V Bool) (?W Bool) (?X Bool) (?Y Bool) (?Z Bool) (?A1 Bool) (?B1 Bool) (?C1 Bool) (?D1 Bool) (?E1 Bool) (?F1 Bool) (?G1 Bool) (?H1 Bool) (?I1 Bool) (?J1 Bool) (?K1 Bool) (?L1 Bool) (?M1 Bool) (?N1 Bool) (?O1 Bool) (?P1 Bool) (?Q1 Bool) (?R1 Bool) (?S1 Bool) (?T1 Bool) (?U1 Bool) (?V1 Bool) (?W1 Bool) (?X1 Bool) (?Y1 Bool) (?Z1 Bool) (?A2 Bool) (?B2 Bool) (?C2 Bool) (?D2 Bool) (?E2 Bool) (?F2 Bool) (?G2 Bool) (?H2 Bool) (?I2 Bool) (?J2 Bool) (?K2 Bool) (?L2 Bool) (?M2 Bool) (?N2 Bool) (?O2 Bool) (?P2 Bool) (?Q2 Bool) (?R2 Bool) (?S2 Bool) (?T2 Bool) (?U2 Bool) (?V2 Bool) (?W2 Bool) (?X2 Bool) (?Y2 Bool) (?Z2 Bool) (?A3 Bool) (?B3 Bool) (?C3 Bool) (?D3 Bool) (?E3 Bool) (?F3 Bool) (?G3 Bool) (?H3 Bool) (?I3 Bool) (?J3 Bool) (?K3 Bool) (?L3 Bool) (?M3 Bool) (?N3 Bool) (?O3 Bool) (?P3 Bool) (?Q3 Bool) (?R3 Bool) (?S3 Bool) (?T3 Real) (?U3 Real) (?V3 Real) (?W3 Real) (?X3 Real) (?Y3 Real) (?Z3 Real) (?A4 Real) (?B4 Real) (?C4 Real) (?D4 Real) (?E4 Real) (?F4 Real) (?G4 Bool) (?H4 Real) (?I4 Bool) (?J4 Real) (?K4 Real) (?L4 Real) (?M4 Bool) (?N4 Bool) (?O4 Bool) (?P4 Bool) (?Q4 Bool) (?R4 Bool) (?S4 Bool) (?T4 Bool) (?U4 Bool) (?V4 Bool) (?W4 Bool) (?X4 Bool) (?Y4 Bool) (?Z4 Real) (?A5 Real) (?B5 Bool) (?C5 Bool) (?D5 Bool) (?E5 Bool) (?F5 Bool) (?G5 Bool) (?H5 Bool) (?I5 Bool) (?J5 Bool) (?K5 Bool) (?L5 Bool) (?M5 Bool) (?N5 Bool) (?O5 Bool) (?P5 Bool) (?Q5 Bool) (?R5 Bool) (?S5 Real) (?T5 Bool) (?U5 Real) (?V5 Bool) (?W5 Bool) (?X5 Bool) (?Y5 Bool) (?Z5 Bool) (?A6 Bool) (?B6 Bool) (?C6 Bool) (?D6 Bool) (?E6 Bool) (?F6 Bool) (?G6 Real) (?H6 Bool) (?I6 Bool) (?J6 Bool) (?K6 Bool) (?L6 Bool) (?M6 Real) (?N6 Bool) (?O6 Bool) (?P6 Bool) (?Q6 Real) (?R6 Bool) (?S6 Bool) (?T6 Bool) (?U6 Bool) )(let (($x646077 (|cp-rel-__UFO__0| ?A ?B ?C ?D ?E ?F ?G ?H ?I ?J ?K ?L ?M ?N ?O ?P ?Q ?R ?S ?F4 ?G4 ?H4 ?I4 ?J4 ?K4 ?L4)))
(let (($x329596 (not ?M4)))
(let (($x689113 (or $x329596 (and ?P3 ?N4 ?S3) (and ?L3 ?O4 (not ?R3)) (and ?U ?P4 ?W))))
(let (($x250279 (or $x329596 (and ?N4 (not ?O4) (not ?P4)) (and ?O4 (not ?N4) (not ?P4)) (and ?P4 (not ?N4) (not ?O4)))))
(let (($x305577 (and ?T4 ?X4 ?Y4 (<= ?J4 ?Z4) (>= ?J4 ?Z4) (<= ?K4 ?A5) (>= ?K4 ?A5))))
(let (($x115689 (and ?Q4 ?W4 ?G4 (<= ?J4 ?H4) (>= ?J4 ?H4) (<= ?K4 ?F4) (>= ?K4 ?F4))))
(let (($x618560 (not ?V4)))
(let (($x205828 (not ?K5)))
(let (($x508380 (or $x205828 ?L5)))
(let (($x377985 (not ?Q5)))
(let (($x839744 (or $x377985 (and ?N5 ?R5 (<= ?S5 0.0) (>= ?S5 0.0)) (and ?K5 ?T5 ?P5 (<= ?S5 ?U5) (>= ?S5 ?U5)) (and ?H5 ?V5 ?M5 (<= ?S5 ?U5) (>= ?S5 ?U5)))))
(let (($x568074 (or $x377985 (and ?R5 (not ?T5) (not ?V5)) (and ?T5 (not ?R5) (not ?V5)) (and ?V5 (not ?R5) (not ?T5)))))
(let (($x314972 (|cp-rel-bb.i| ?A ?B ?C ?D ?E ?F ?G ?H ?I ?J ?K ?L ?M ?N ?O ?P ?Q ?R ?S)))
(let (($x125325 (and $x314972 (= ?U6 (= ?R 0.0)) (= ?T6 (not (= ?P 2.0))) (= ?Y5 (= ?S5 0.0)) (= ?P5 (or ?S6 ?R6)) (= ?S6 (not (= ?N ?Q6))) (= ?R6 (= ?Q6 0.0)) (= ?M5 (= ?U5 0.0)) (= ?U5 (ite ?P6 ?J4 1.0)) (= ?Q6 (ite ?P6 ?K4 ?S)) (= ?P6 (or ?O6 ?N6)) (= ?O6 (= ?S 0.0)) (= ?N6 (not (= ?Q 1.0))) (= ?M6 (ite ?I4 ?N ?O)) (= ?J5 (= ?M 0.0)) (= ?D5 (= ?L4 0.0)) (= ?L4 (ite ?L6 ?S 0.0)) (= ?L6 (= ?Q 1.0)) (= ?A5 (ite ?J6 ?F4 0.0)) (= ?Z4 (ite ?J6 ?H4 0.0)) (= ?Y4 (or ?G4 ?K6)) (= ?K6 (not ?J6)) (= ?J6 (or ?I6 ?G4)) (= ?I6 (or ?H6 ?I4)) (= ?H6 (not (= ?O ?F4))) (= ?S4 (or ?G4 ?I4)) (= ?I4 (= ?O 0.0)) (= ?G6 (ite ?G4 1.0 0.0)) (= ?G4 (= ?F4 0.0)) (= ?F4 (ite ?F6 ?R 0.0)) (= ?F6 (= ?P 2.0)) (= ?S3 (= ?E4 0.0)) (= ?R3 (= ?B 0.0)) (= ?N3 (= ?D4 0.0)) (= ?K3 (= ?C 0.0)) (= ?G3 (= ?C4 0.0)) (= ?D3 (= ?D 0.0)) (= ?Z2 (= ?B4 0.0)) (= ?W2 (= ?E 0.0)) (= ?S2 (= ?A4 0.0)) (= ?P2 (= ?F 0.0)) (= ?L2 (= ?Z3 0.0)) (= ?I2 (= ?G 0.0)) (= ?E2 (= ?Y3 0.0)) (= ?B2 (= ?H 0.0)) (= ?X1 (= ?X3 0.0)) (= ?U1 (= ?I 0.0)) (= ?Q1 (= ?W3 0.0)) (= ?N1 (= ?J 0.0)) (= ?J1 (= ?V3 0.0)) (= ?G1 (= ?K 0.0)) (= ?C1 (= ?U3 0.0)) (= ?Z (= ?L 0.0)) (= ?T3 (+ 1.0 ?A)) (= ?W (not (<= ?A 3.0))) (or ?C6 (and ?E5 ?J5)) (or (not ?C6) (and ?D6 (not ?E6)) (and ?E6 (not ?D6))) (or (not ?C6) (and ?Z5 ?D6) (and ?W5 ?E6 ?B6)) (or (not ?Z5) ?A6) (or (not ?Z5) (and ?W5 ?A6 (not ?B6))) (or (not ?W5) ?X5) (or (not ?W5) (and ?Q5 ?X5 ?Y5)) $x568074 $x839744 (or (not ?N5) ?O5) (or (not ?N5) (and ?K5 ?O5 (not ?P5))) $x508380 (or $x205828 (and ?H5 ?L5 (not ?M5))) (or (not ?H5) ?I5) (or (not ?H5) (and ?E5 ?I5 (not ?J5))) (or (not ?E5) (and ?F5 (not ?G5)) (and ?G5 (not ?F5))) (or (not ?E5) (and ?B5 ?F5) (and ?V4 ?G5 ?D5)) (or (not ?B5) ?C5) (or (not ?B5) (and ?V4 ?C5 (not ?D5))) (or $x618560 (and ?W4 (not ?X4)) (and ?X4 (not ?W4))) (or $x618560 $x115689 $x305577) (or (not ?T4) ?U4) (or (not ?T4) (and ?M4 ?U4 (not ?S4))) (or (not ?Q4) ?R4) (or (not ?Q4) (and ?M4 ?R4 ?S4)) $x250279 $x689113 (or (not ?P3) ?Q3) (or (not ?P3) (and ?L3 ?Q3 ?R3)) (or (not ?L3) (and ?M3 (not ?O3)) (and ?O3 (not ?M3))) (or (not ?L3) (and ?I3 ?M3 ?N3) (and ?E3 ?O3 (not ?K3))) (or (not ?I3) ?J3) (or (not ?I3) (and ?E3 ?J3 ?K3)) (or (not ?E3) (and ?F3 (not ?H3)) (and ?H3 (not ?F3))) (or (not ?E3) (and ?B3 ?F3 ?G3) (and ?X2 ?H3 (not ?D3))) (or (not ?B3) ?C3) (or (not ?B3) (and ?X2 ?C3 ?D3)) (or (not ?X2) (and ?Y2 (not ?A3)) (and ?A3 (not ?Y2))) (or (not ?X2) (and ?U2 ?Y2 ?Z2) (and ?Q2 ?A3 (not ?W2))) (or (not ?U2) ?V2) (or (not ?U2) (and ?Q2 ?V2 ?W2)) (or (not ?Q2) (and ?R2 (not ?T2)) (and ?T2 (not ?R2))) (or (not ?Q2) (and ?N2 ?R2 ?S2) (and ?J2 ?T2 (not ?P2))) (or (not ?N2) ?O2) (or (not ?N2) (and ?J2 ?O2 ?P2)) (or (not ?J2) (and ?K2 (not ?M2)) (and ?M2 (not ?K2))) (or (not ?J2) (and ?G2 ?K2 ?L2) (and ?C2 ?M2 (not ?I2))) (or (not ?G2) ?H2) (or (not ?G2) (and ?C2 ?H2 ?I2)) (or (not ?C2) (and ?D2 (not ?F2)) (and ?F2 (not ?D2))) (or (not ?C2) (and ?Z1 ?D2 ?E2) (and ?V1 ?F2 (not ?B2))) (or (not ?Z1) ?A2) (or (not ?Z1) (and ?V1 ?A2 ?B2)) (or (not ?V1) (and ?W1 (not ?Y1)) (and ?Y1 (not ?W1))) (or (not ?V1) (and ?S1 ?W1 ?X1) (and ?O1 ?Y1 (not ?U1))) (or (not ?S1) ?T1) (or (not ?S1) (and ?O1 ?T1 ?U1)) (or (not ?O1) (and ?P1 (not ?R1)) (and ?R1 (not ?P1))) (or (not ?O1) (and ?L1 ?P1 ?Q1) (and ?H1 ?R1 (not ?N1))) (or (not ?L1) ?M1) (or (not ?L1) (and ?H1 ?M1 ?N1)) (or (not ?H1) (and ?I1 (not ?K1)) (and ?K1 (not ?I1))) (or (not ?H1) (and ?E1 ?I1 ?J1) (and ?A1 ?K1 (not ?G1))) (or (not ?E1) ?F1) (or (not ?E1) (and ?A1 ?F1 ?G1)) (or (not ?A1) (and ?B1 (not ?D1)) (and ?D1 (not ?B1))) (or (not ?A1) (and ?X ?B1 ?C1) (and ?T ?D1 (not ?Z))) (or (not ?X) ?Y) (or (not ?X) (and ?T ?Y ?Z)) (or (not ?T) ?V) (or (not ?T) (and ?U ?V (not ?W))) (= ?B6 (or ?U6 ?T6)))))
(=> $x125325 $x646077))))))))))))))))
)
(assert (forall ((?A Real) (?B Bool) (?C Real) (?D Bool) (?E Real) (?F Real) (?G Real) (?H Real) (?I Real) (?J Real) (?K Real) (?L Real) (?M Real) (?N Real) (?O Real) (?P Real) (?Q Real) (?R Real) (?S Real) (?T Real) (?U Real) (?V Real) (?W Real) (?X Real) (?Y Real) (?Z Real) (?A1 Bool) )(let (($x815146 (|cp-rel-__UFO__0| ?H ?I ?J ?K ?L ?M ?N ?O ?P ?Q ?R ?S ?T ?U ?V ?W ?X ?Y ?Z ?A ?B ?C ?D ?E ?F ?G)))
(=> (and $x815146 (= ?A1 true)) $x815146)))
)
(assert (forall ((?A Real) (?B Real) (?C Real) (?D Real) (?E Real) (?F Real) (?G Real) (?H Real) (?I Real) (?J Real) (?K Real) (?L Real) (?M Real) (?N Real) (?O Real) (?P Real) (?Q Real) (?R Real) (?S Real) (?T Bool) (?U Bool) (?V Bool) (?W Bool) (?X Bool) (?Y Bool) (?Z Bool) (?A1 Bool) (?B1 Bool) (?C1 Bool) (?D1 Bool) (?E1 Bool) (?F1 Bool) (?G1 Bool) (?H1 Bool) (?I1 Bool) (?J1 Bool) (?K1 Bool) (?L1 Bool) (?M1 Bool) (?N1 Bool) (?O1 Bool) (?P1 Bool) (?Q1 Bool) (?R1 Bool) (?S1 Bool) (?T1 Bool) (?U1 Bool) (?V1 Bool) (?W1 Bool) (?X1 Bool) (?Y1 Bool) (?Z1 Bool) (?A2 Bool) (?B2 Bool) (?C2 Bool) (?D2 Bool) (?E2 Bool) (?F2 Bool) (?G2 Bool) (?H2 Bool) (?I2 Bool) (?J2 Bool) (?K2 Bool) (?L2 Bool) (?M2 Bool) (?N2 Bool) (?O2 Bool) (?P2 Bool) (?Q2 Bool) (?R2 Bool) (?S2 Bool) (?T2 Bool) (?U2 Bool) (?V2 Bool) (?W2 Bool) (?X2 Bool) (?Y2 Bool) (?Z2 Bool) (?A3 Bool) (?B3 Bool) (?C3 Bool) (?D3 Bool) (?E3 Bool) (?F3 Bool) (?G3 Bool) (?H3 Bool) (?I3 Bool) (?J3 Bool) (?K3 Bool) (?L3 Bool) (?M3 Bool) (?N3 Bool) (?O3 Bool) (?P3 Bool) (?Q3 Bool) (?R3 Bool) (?S3 Bool) (?T3 Real) (?U3 Real) (?V3 Real) (?W3 Real) (?X3 Real) (?Y3 Real) (?Z3 Real) (?A4 Real) (?B4 Real) (?C4 Real) (?D4 Real) (?E4 Real) (?F4 Real) (?G4 Bool) (?H4 Real) (?I4 Bool) (?J4 Real) (?K4 Real) (?L4 Real) (?M4 Bool) (?N4 Bool) (?O4 Bool) (?P4 Bool) (?Q4 Bool) (?R4 Bool) (?S4 Bool) (?T4 Bool) (?U4 Bool) (?V4 Bool) (?W4 Bool) (?X4 Bool) (?Y4 Bool) (?Z4 Real) (?A5 Real) (?B5 Bool) (?C5 Bool) (?D5 Bool) (?E5 Bool) (?F5 Bool) (?G5 Bool) (?H5 Bool) (?I5 Bool) (?J5 Bool) (?K5 Bool) (?L5 Bool) (?M5 Bool) (?N5 Bool) (?O5 Bool) (?P5 Bool) (?Q5 Bool) (?R5 Bool) (?S5 Real) (?T5 Bool) (?U5 Real) (?V5 Bool) (?W5 Bool) (?X5 Bool) (?Y5 Real) (?Z5 Bool) (?A6 Bool) (?B6 Bool) (?C6 Bool) (?D6 Bool) (?E6 Real) (?F6 Bool) (?G6 Bool) (?H6 Bool) (?I6 Real) (?J6 Bool) (?K6 Bool) )(let (($x796639 (not ?B3)))
(let (($x396489 (or $x796639 (and ?X2 ?C3 ?D3))))
(let (($x87933 (or $x796639 ?C3)))
(let (($x136957 (not ?E3)))
(let (($x244611 (or $x136957 (and ?B3 ?F3 ?G3) (and ?X2 ?H3 (not ?D3)))))
(let (($x311786 (or $x136957 (and ?F3 (not ?H3)) (and ?H3 (not ?F3)))))
(let (($x886442 (not ?I3)))
(let (($x598967 (or $x886442 ?J3)))
(let (($x174379 (not ?M4)))
(let (($x381062 (or $x174379 (and ?P3 ?N4 ?S3) (and ?L3 ?O4 (not ?R3)) (and ?U ?P4 ?W))))
(let (($x576958 (or $x174379 (and ?N4 (not ?O4) (not ?P4)) (and ?O4 (not ?N4) (not ?P4)) (and ?P4 (not ?N4) (not ?O4)))))
(let (($x891816 (not ?T4)))
(let (($x62696 (or $x891816 ?U4)))
(let (($x922993 (and ?T4 ?X4 ?Y4 (<= ?J4 ?Z4) (>= ?J4 ?Z4) (<= ?K4 ?A5) (>= ?K4 ?A5))))
(let (($x64343 (and ?Q4 ?W4 ?G4 (<= ?J4 ?H4) (>= ?J4 ?H4) (<= ?K4 ?F4) (>= ?K4 ?F4))))
(let (($x245848 (not ?V4)))
(let (($x532278 (not ?H5)))
(let (($x412062 (or $x532278 ?I5)))
(let (($x813710 (not ?Q5)))
(let (($x597848 (or $x813710 (and ?N5 ?R5 (<= ?S5 0.0) (>= ?S5 0.0)) (and ?K5 ?T5 ?P5 (<= ?S5 ?U5) (>= ?S5 ?U5)) (and ?H5 ?V5 ?M5 (<= ?S5 ?U5) (>= ?S5 ?U5)))))
(let (($x796036 (or $x813710 (and ?R5 (not ?T5) (not ?V5)) (and ?T5 (not ?R5) (not ?V5)) (and ?V5 (not ?R5) (not ?T5)))))
(let (($x285405 (or (and ?Q5 (not ?W5)) (and ?Q4 (not ?G4)) (and ?T4 (not ?Y4)))))
(let (($x253546 (|cp-rel-bb.i| ?A ?B ?C ?D ?E ?F ?G ?H ?I ?J ?K ?L ?M ?N ?O ?P ?Q ?R ?S)))
(let (($x173934 (and $x253546 (= ?P5 (or ?K6 ?J6)) (= ?K6 (not (= ?N ?I6))) (= ?J6 (= ?I6 0.0)) (= ?M5 (= ?U5 0.0)) (= ?U5 (ite ?H6 ?J4 1.0)) (= ?I6 (ite ?H6 ?K4 ?S)) (= ?H6 (or ?G6 ?F6)) (= ?G6 (= ?S 0.0)) (= ?F6 (not (= ?Q 1.0))) (= ?E6 (ite ?I4 ?N ?O)) (= ?J5 (= ?M 0.0)) (= ?D5 (= ?L4 0.0)) (= ?L4 (ite ?D6 ?S 0.0)) (= ?D6 (= ?Q 1.0)) (= ?A5 (ite ?B6 ?F4 0.0)) (= ?Z4 (ite ?B6 ?H4 0.0)) (= ?Y4 (or ?G4 ?C6)) (= ?C6 (not ?B6)) (= ?B6 (or ?A6 ?G4)) (= ?A6 (or ?Z5 ?I4)) (= ?Z5 (not (= ?O ?F4))) (= ?S4 (or ?G4 ?I4)) (= ?I4 (= ?O 0.0)) (= ?Y5 (ite ?G4 1.0 0.0)) (= ?G4 (= ?F4 0.0)) (= ?F4 (ite ?X5 ?R 0.0)) (= ?X5 (= ?P 2.0)) (= ?S3 (= ?E4 0.0)) (= ?R3 (= ?B 0.0)) (= ?N3 (= ?D4 0.0)) (= ?K3 (= ?C 0.0)) (= ?G3 (= ?C4 0.0)) (= ?D3 (= ?D 0.0)) (= ?Z2 (= ?B4 0.0)) (= ?W2 (= ?E 0.0)) (= ?S2 (= ?A4 0.0)) (= ?P2 (= ?F 0.0)) (= ?L2 (= ?Z3 0.0)) (= ?I2 (= ?G 0.0)) (= ?E2 (= ?Y3 0.0)) (= ?B2 (= ?H 0.0)) (= ?X1 (= ?X3 0.0)) (= ?U1 (= ?I 0.0)) (= ?Q1 (= ?W3 0.0)) (= ?N1 (= ?J 0.0)) (= ?J1 (= ?V3 0.0)) (= ?G1 (= ?K 0.0)) (= ?C1 (= ?U3 0.0)) (= ?Z (= ?L 0.0)) (= ?T3 (+ 1.0 ?A)) (= ?W (not (<= ?A 3.0))) $x285405 $x796036 $x597848 (or (not ?N5) ?O5) (or (not ?N5) (and ?K5 ?O5 (not ?P5))) (or (not ?K5) ?L5) (or (not ?K5) (and ?H5 ?L5 (not ?M5))) $x412062 (or $x532278 (and ?E5 ?I5 (not ?J5))) (or (not ?E5) (and ?F5 (not ?G5)) (and ?G5 (not ?F5))) (or (not ?E5) (and ?B5 ?F5) (and ?V4 ?G5 ?D5)) (or (not ?B5) ?C5) (or (not ?B5) (and ?V4 ?C5 (not ?D5))) (or $x245848 (and ?W4 (not ?X4)) (and ?X4 (not ?W4))) (or $x245848 $x64343 $x922993) $x62696 (or $x891816 (and ?M4 ?U4 (not ?S4))) (or (not ?Q4) ?R4) (or (not ?Q4) (and ?M4 ?R4 ?S4)) $x576958 $x381062 (or (not ?P3) ?Q3) (or (not ?P3) (and ?L3 ?Q3 ?R3)) (or (not ?L3) (and ?M3 (not ?O3)) (and ?O3 (not ?M3))) (or (not ?L3) (and ?I3 ?M3 ?N3) (and ?E3 ?O3 (not ?K3))) $x598967 (or $x886442 (and ?E3 ?J3 ?K3)) $x311786 $x244611 $x87933 $x396489 (or (not ?X2) (and ?Y2 (not ?A3)) (and ?A3 (not ?Y2))) (or (not ?X2) (and ?U2 ?Y2 ?Z2) (and ?Q2 ?A3 (not ?W2))) (or (not ?U2) ?V2) (or (not ?U2) (and ?Q2 ?V2 ?W2)) (or (not ?Q2) (and ?R2 (not ?T2)) (and ?T2 (not ?R2))) (or (not ?Q2) (and ?N2 ?R2 ?S2) (and ?J2 ?T2 (not ?P2))) (or (not ?N2) ?O2) (or (not ?N2) (and ?J2 ?O2 ?P2)) (or (not ?J2) (and ?K2 (not ?M2)) (and ?M2 (not ?K2))) (or (not ?J2) (and ?G2 ?K2 ?L2) (and ?C2 ?M2 (not ?I2))) (or (not ?G2) ?H2) (or (not ?G2) (and ?C2 ?H2 ?I2)) (or (not ?C2) (and ?D2 (not ?F2)) (and ?F2 (not ?D2))) (or (not ?C2) (and ?Z1 ?D2 ?E2) (and ?V1 ?F2 (not ?B2))) (or (not ?Z1) ?A2) (or (not ?Z1) (and ?V1 ?A2 ?B2)) (or (not ?V1) (and ?W1 (not ?Y1)) (and ?Y1 (not ?W1))) (or (not ?V1) (and ?S1 ?W1 ?X1) (and ?O1 ?Y1 (not ?U1))) (or (not ?S1) ?T1) (or (not ?S1) (and ?O1 ?T1 ?U1)) (or (not ?O1) (and ?P1 (not ?R1)) (and ?R1 (not ?P1))) (or (not ?O1) (and ?L1 ?P1 ?Q1) (and ?H1 ?R1 (not ?N1))) (or (not ?L1) ?M1) (or (not ?L1) (and ?H1 ?M1 ?N1)) (or (not ?H1) (and ?I1 (not ?K1)) (and ?K1 (not ?I1))) (or (not ?H1) (and ?E1 ?I1 ?J1) (and ?A1 ?K1 (not ?G1))) (or (not ?E1) ?F1) (or (not ?E1) (and ?A1 ?F1 ?G1)) (or (not ?A1) (and ?B1 (not ?D1)) (and ?D1 (not ?B1))) (or (not ?A1) (and ?X ?B1 ?C1) (and ?T ?D1 (not ?Z))) (or (not ?X) ?Y) (or (not ?X) (and ?T ?Y ?Z)) (or (not ?T) ?V) (or (not ?T) (and ?U ?V (not ?W))) (= ?W5 (= ?S5 0.0)))))
(=> $x173934 |cp-rel-UnifiedReturnBlock|))))))))))))))))))))))))))
)
(assert (not cp-rel-UnifiedReturnBlock))
(check-sat)
